40
0 1 0.81 0.05
0 2 0.54 0.23
0 3 0.48 0.18
0 4 0.48 0.13
0 5 0.58 0.22
0 6 0.54 0.19
0 7 0.66 0.33
0 8 0.5 0.25
0 9 0.64 0.11
0 10 0.68 0.25
0 11 0.52 0.17
0 12 0.65 0.28
0 13 0.51 0.08
0 14 0.22 0.06
0 15 0.62 0.27
0 16 0.62 0.2
0 17 0.72 0.26
0 18 0.44 0.19
0 19 0.75 0.16
0 20 0.46 0.24
0 21 0.48 0.24
0 22 0.63 0.13
0 23 0.58 0.29
0 24 0.42 0.32
0 25 0.68 0.19
0 26 0.59 0.14
0 27 0.54 0.22
0 28 0.58 0.19
0 29 0.64 0.3
0 30 0.64 0.2
0 31 0.48 0.25
0 32 0.31 0.24
0 33 0.49 0.14
0 34 0.28 0.23
0 35 0.35 0.2
0 36 0.62 0.22
0 37 0.4 0.18
0 38 0.74 0.28
0 39 0.4 0.18
1 2 0.44 0.24
1 3 0.54 0.14
1 4 0.35 0.08
1 5 0.72 0.17
1 6 0.5 0.14
1 7 0.67 0.34
1 8 0.52 0.2
1 9 0.36 0.06
1 10 0.63 0.2
1 11 0.57 0.12
1 12 0.66 0.25
1 13 0.47 0.13
1 14 0.87 0.11
1 15 0.63 0.22
1 16 0.58 0.15
1 17 0.69 0.29
1 18 0.55 0.15
1 19 0.54 0.11
1 20 0.81 0.21
1 21 0.52 0.19
1 22 0.5 0.18
1 23 0.6 0.24
1 24 0.46 0.27
1 25 0.69 0.24
1 26 0.44 0.09
1 27 0.38 0.22
1 28 0.74 0.14
1 29 0.68 0.35
1 30 0.58 0.15
1 31 0.5 0.2
1 32 0.5 0.25
1 33 0.56 0.09
1 34 0.59 0.18
1 35 0.77 0.15
1 36 0.64 0.26
1 37 0.44 0.13
1 38 0.69 0.24
1 39 0.43 0.23
2 3 0.53 0.25
2 4 0.54 0.25
2 5 0.74 0.23
2 6 0.59 0.28
2 7 0.8 0.3
2 8 0.7 0.32
2 9 0.54 0.18
2 10 0.48 0.3
2 11 0.69 0.12
2 12 0.8 0.28
2 13 0.5 0.15
2 14 0.54 0.28
2 15 0.4 0.33
2 16 0.55 0.12
2 17 0.61 0.23
2 18 0.59 0.26
2 19 0.55 0.17
2 20 0.67 0.24
2 21 0.54 0.05
2 22 0.65 0.1
2 23 0.66 0.3
2 24 0.64 0.35
2 25 0.81 0.28
2 26 0.67 0.15
2 27 0.71 0.22
2 28 0.61 0.24
2 29 0.53 0.17
2 30 0.34 0.23
2 31 0.44 0.26
2 32 0.37 0.31
2 33 0.5 0.15
2 34 0.68 0.19
2 35 0.62 0.24
2 36 0.66 0.15
2 37 0.44 0.14
2 38 0.62 0.22
2 39 0.7 0.19
3 4 0.79 0.06
3 5 0.51 0.15
3 6 0.34 0.1
3 7 0.78 0.32
3 8 0.83 0.34
3 9 0.55 0.2
3 10 0.66 0.15
3 11 0.64 0.22
3 12 0.49 0.29
3 13 0.62 0.1
3 14 0.6 0.24
3 15 0.58 0.31
3 16 0.68 0.24
3 17 0.55 0.15
3 18 0.76 0.01
3 19 0.68 0.21
3 20 0.68 0.29
3 21 0.71 0.28
3 22 0.77 0.15
3 23 0.7 0.16
3 24 0.5 0.23
3 25 0.42 0.25
3 26 0.68 0.19
3 27 0.49 0.14
3 28 0.5 0.24
3 29 0.52 0.32
3 30 0.46 0.11
3 31 0.46 0.24
3 32 0.46 0.26
3 33 0.45 0.19
3 34 0.74 0.31
3 35 0.65 0.13
3 36 0.38 0.18
3 37 0.54 0.26
3 38 0.7 0.23
3 39 0.3 0.2
4 5 0.84 0.11
4 6 0.6 0.06
4 7 0.32 0.26
4 8 0.7 0.28
4 9 0.56 0.14
4 10 0.28 0.12
4 11 0.66 0.2
4 12 0.67 0.24
4 13 0.62 0.1
4 14 0.54 0.19
4 15 0.46 0.3
4 16 0.72 0.21
4 17 0.51 0.21
4 18 0.53 0.07
4 19 0.78 0.19
4 20 0.67 0.28
4 21 0.64 0.27
4 22 0.46 0.15
4 23 0.48 0.16
4 24 0.35 0.19
4 25 0.55 0.31
4 26 0.54 0.17
4 27 0.73 0.2
4 28 0.8 0.2
4 29 0.6 0.3
4 30 0.67 0.17
4 31 0.73 0.2
4 32 0.5 0.23
4 33 0.62 0.17
4 34 0.55 0.26
4 35 0.62 0.07
4 36 0.5 0.2
4 37 0.59 0.21
4 38 0.58 0.2
4 39 0.77 0.16
5 6 0.52 0.05
5 7 0.54 0.24
5 8 0.57 0.34
5 9 0.36 0.22
5 10 0.62 0.23
5 11 0.66 0.22
5 12 0.66 0.2
5 13 0.67 0.21
5 14 0.36 0.28
5 15 0.47 0.21
5 16 0.71 0.24
5 17 0.6 0.3
5 18 0.76 0.16
5 19 0.8 0.18
5 20 0.65 0.24
5 21 0.2 0.18
5 22 0.5 0.26
5 23 0.72 0.23
5 24 0.52 0.3
5 25 0.6 0.3
5 26 0.68 0.19
5 27 0.58 0.19
5 28 0.5 0.19
5 29 0.66 0.31
5 30 0.61 0.18
5 31 0.54 0.09
5 32 0.46 0.34
5 33 0.62 0.19
5 34 0.66 0.27
5 35 0.64 0.18
5 36 0.51 0.28
5 37 0.46 0.22
5 38 0.75 0.15
5 39 0.4 0.27
6 7 0.56 0.29
6 8 0.75 0.31
6 9 0.62 0.17
6 10 0.6 0.18
6 11 0.73 0.17
6 12 0.35 0.25
6 13 0.34 0.16
6 14 0.5 0.25
6 15 0.72 0.26
6 16 0.38 0.24
6 17 0.56 0.25
6 18 0.52 0.11
6 19 0.58 0.16
6 20 0.64 0.26
6 21 0.72 0.23
6 22 0.7 0.21
6 23 0.74 0.18
6 24 0.4 0.25
6 25 0.73 0.25
6 26 0.34 0.14
6 27 0.46 0.14
6 28 0.6 0.14
6 29 0.58 0.35
6 30 0.5 0.21
6 31 0.36 0.14
6 32 0.78 0.29
6 33 0.72 0.14
6 34 0.73 0.31
6 35 0.49 0.13
6 36 0.44 0.26
6 37 0.64 0.26
6 38 0.47 0.2
6 39 0.54 0.22
7 8 0.76 0.44
7 9 0.5 0.3
7 10 0.54 0.26
7 11 0.34 0.3
7 12 0.6 0.23
7 13 0.3 0.25
7 14 0.64 0.39
7 15 0.47 0.37
7 16 0.4 0.21
7 17 0.44 0.39
7 18 0.54 0.31
7 19 0.54 0.31
7 20 0.79 0.27
7 21 0.34 0.25
7 22 0.44 0.2
7 23 0.8 0.26
7 24 0.43 0.33
7 25 0.51 0.14
7 26 0.8 0.29
7 27 0.51 0.25
7 28 0.5 0.38
7 29 0.66 0.37
7 30 0.46 0.21
7 31 0.66 0.33
7 32 0.52 0.37
7 33 0.53 0.29
7 34 0.69 0.28
7 35 0.68 0.33
7 36 0.68 0.34
7 37 0.57 0.23
7 38 0.6 0.18
7 39 0.61 0.3
8 9 0.6 0.14
8 10 0.42 0.39
8 11 0.6 0.2
8 12 0.81 0.33
8 13 0.72 0.33
8 14 0.72 0.31
8 15 0.7 0.39
8 16 0.44 0.34
8 17 0.5 0.41
8 18 0.67 0.33
8 19 0.69 0.16
8 20 0.84 0.29
8 21 0.44 0.27
8 22 0.58 0.38
8 23 0.5 0.28
8 24 0.54 0.21
8 25 0.75 0.37
8 26 0.68 0.17
8 27 0.62 0.26
8 28 0.62 0.22
8 29 0.43 0.32
8 30 0.66 0.23
8 31 0.87 0.25
8 32 0.39 0.33
8 33 0.79 0.17
8 34 0.46 0.28
8 35 0.45 0.33
8 36 0.63 0.34
8 37 0.51 0.33
8 38 0.6 0.32
8 39 0.56 0.38
9 10 0.35 0.25
9 11 0.52 0.06
9 12 0.74 0.19
9 13 0.52 0.19
9 14 0.72 0.17
9 15 0.63 0.28
9 16 0.5 0.2
9 17 0.76 0.3
9 18 0.6 0.19
9 19 0.69 0.05
9 20 0.58 0.15
9 21 0.16 0.13
9 22 0.62 0.24
9 23 0.48 0.26
9 24 0.67 0.21
9 25 0.58 0.26
9 26 0.6 0.03
9 27 0.7 0.16
9 28 0.38 0.08
9 29 0.62 0.31
9 30 0.68 0.09
9 31 0.8 0.14
9 32 0.5 0.19
9 33 0.64 0.03
9 34 0.59 0.2
9 35 0.46 0.21
9 36 0.28 0.2
9 37 0.57 0.19
9 38 0.58 0.18
9 39 0.6 0.24
10 11 0.64 0.2
10 12 0.39 0.14
10 13 0.74 0.22
10 14 0.46 0.29
10 15 0.6 0.28
10 16 0.78 0.18
10 17 0.59 0.28
10 18 0.25 0.14
10 19 0.5 0.24
10 20 0.63 0.18
10 21 0.51 0.25
10 22 0.63 0.27
10 23 0.76 0.16
10 24 0.59 0.28
10 25 0.82 0.28
10 26 0.26 0.22
10 27 0.68 0.28
10 28 0.73 0.32
10 29 0.6 0.33
10 30 0.62 0.24
10 31 0.45 0.17
10 32 0.58 0.11
10 33 0.61 0.22
10 34 0.6 0.25
10 35 0.74 0.19
10 36 0.46 0.27
10 37 0.75 0.2
10 38 0.62 0.08
10 39 0.72 0.28
11 12 0.65 0.19
11 13 0.58 0.23
11 14 0.3 0.16
11 15 0.64 0.31
11 16 0.42 0.2
11 17 0.41 0.3
11 18 0.46 0.21
11 19 0.36 0.05
11 20 0.64 0.15
11 21 0.56 0.13
11 22 0.6 0.22
11 23 0.54 0.2
11 24 0.46 0.23
11 25 0.34 0.2
11 26 0.54 0.03
11 27 0.58 0.1
11 28 0.26 0.12
11 29 0.62 0.29
11 30 0.55 0.11
11 31 0.71 0.14
11 32 0.72 0.19
11 33 0.19 0.03
11 34 0.62 0.2
11 35 0.56 0.27
11 36 0.34 0.14
11 37 0.76 0.22
11 38 0.26 0.12
11 39 0.58 0.18
12 13 0.68 0.23
12 14 0.52 0.34
12 15 0.64 0.14
12 16 0.73 0.22
12 17 0.32 0.16
12 18 0.34 0.28
12 19 0.52 0.18
12 20 0.62 0.04
12 21 0.7 0.26
12 22 0.62 0.18
12 23 0.66 0.3
12 24 0.34 0.25
12 25 0.55 0.14
12 26 0.64 0.16
12 27 0.66 0.25
12 28 0.4 0.27
12 29 0.7 0.28
12 30 0.76 0.19
12 31 0.36 0.27
12 32 0.66 0.25
12 33 0.49 0.16
12 34 0.74 0.25
12 35 0.52 0.22
12 36 0.7 0.31
12 37 0.54 0.2
12 38 0.64 0.22
12 39 0.79 0.33
13 14 0.62 0.14
13 15 0.63 0.28
13 16 0.52 0.14
13 17 0.61 0.25
13 18 0.71 0.11
13 19 0.24 0.2
13 20 0.65 0.19
13 21 0.47 0.2
13 22 0.47 0.05
13 23 0.66 0.26
13 24 0.58 0.24
13 25 0.48 0.25
13 26 0.58 0.2
13 27 0.21 0.14
13 28 0.76 0.27
13 29 0.51 0.22
13 30 0.16 0.12
13 31 0.7 0.29
13 32 0.68 0.2
13 33 0.52 0.2
13 34 0.41 0.21
13 35 0.67 0.17
13 36 0.78 0.14
13 37 0.42 0.16
13 38 0.53 0.24
13 39 0.78 0.1
14 15 0.67 0.26
14 16 0.67 0.26
14 17 0.57 0.2
14 18 0.66 0.25
14 19 0.66 0.21
14 20 0.56 0.3
14 21 0.56 0.28
14 22 0.41 0.19
14 23 0.74 0.28
14 24 0.64 0.26
14 25 0.57 0.25
14 26 0.62 0.19
14 27 0.55 0.26
14 28 0.56 0.25
14 29 0.64 0.34
14 30 0.54 0.26
14 31 0.55 0.3
14 32 0.53 0.3
14 33 0.49 0.19
14 34 0.5 0.29
14 35 0.57 0.14
14 36 0.64 0.21
14 37 0.62 0.24
14 38 0.56 0.22
14 39 0.62 0.24
15 16 0.34 0.33
15 17 0.32 0.16
15 18 0.66 0.3
15 19 0.62 0.3
15 20 0.33 0.18
15 21 0.47 0.34
15 22 0.5 0.23
15 23 0.71 0.36
15 24 0.76 0.38
15 25 0.46 0.28
15 26 0.64 0.28
15 27 0.42 0.24
15 28 0.59 0.3
15 29 0.48 0.4
15 30 0.52 0.33
15 31 0.58 0.3
15 32 0.62 0.39
15 33 0.48 0.28
15 34 0.58 0.36
15 35 0.76 0.36
15 36 0.63 0.24
15 37 0.58 0.34
15 38 0.48 0.28
15 39 0.46 0.2
16 17 0.58 0.35
16 18 0.72 0.25
16 19 0.28 0.19
16 20 0.67 0.18
16 21 0.51 0.07
16 22 0.62 0.19
16 23 0.67 0.18
16 24 0.42 0.3
16 25 0.62 0.16
16 26 0.62 0.17
16 27 0.6 0.27
16 28 0.68 0.22
16 29 0.54 0.25
16 30 0.58 0.18
16 31 0.7 0.28
16 32 0.65 0.21
16 33 0.61 0.17
16 34 0.59 0.07
16 35 0.48 0.22
16 36 0.7 0.17
16 37 0.79 0.02
16 38 0.54 0.1
16 39 0.52 0.21
17 18 0.58 0.14
17 19 0.77 0.25
17 20 0.65 0.2
17 21 0.78 0.28
17 22 0.73 0.3
17 23 0.55 0.31
17 24 0.66 0.36
17 25 0.3 0.25
17 26 0.85 0.27
17 27 0.7 0.29
17 28 0.66 0.37
17 29 0.76 0.34
17 30 0.77 0.24
17 31 0.67 0.34
17 32 0.64 0.39
17 33 0.6 0.27
17 34 0.82 0.41
17 35 0.65 0.28
17 36 0.75 0.33
17 37 0.86 0.36
17 38 0.56 0.36
17 39 0.54 0.35
18 19 0.66 0.2
18 20 0.55 0.3
18 21 0.56 0.28
18 22 0.66 0.16
18 23 0.7 0.17
18 24 0.62 0.22
18 25 0.67 0.26
18 26 0.51 0.18
18 27 0.66 0.15
18 28 0.72 0.25
18 29 0.76 0.33
18 30 0.69 0.1
18 31 0.3 0.23
18 32 0.52 0.25
18 33 0.65 0.18
18 34 0.52 0.32
18 35 0.49 0.14
18 36 0.57 0.19
18 37 0.62 0.27
18 38 0.65 0.22
18 39 0.6 0.21
19 20 0.71 0.14
19 21 0.6 0.12
19 22 0.34 0.25
19 23 0.54 0.25
19 24 0.7 0.22
19 25 0.7 0.25
19 26 0.34 0.02
19 27 0.45 0.15
19 28 0.52 0.12
19 29 0.72 0.3
19 30 0.3 0.1
19 31 0.6 0.09
19 32 0.54 0.18
19 33 0.55 0.02
19 34 0.58 0.19
19 35 0.44 0.26
19 36 0.7 0.19
19 37 0.66 0.21
19 38 0.62 0.17
19 39 0.8 0.23
20 21 0.45 0.22
20 22 0.52 0.14
20 23 0.38 0.29
20 24 0.82 0.21
20 25 0.59 0.18
20 26 0.37 0.12
20 27 0.5 0.25
20 28 0.75 0.23
20 29 0.62 0.24
20 30 0.81 0.2
20 31 0.56 0.23
20 32 0.72 0.28
20 33 0.52 0.12
20 34 0.44 0.21
20 35 0.76 0.26
20 36 0.3 0.27
20 37 0.7 0.16
20 38 0.42 0.21
20 39 0.68 0.29
21 22 0.59 0.15
21 23 0.52 0.25
21 24 0.58 0.3
21 25 0.64 0.23
21 26 0.48 0.1
21 27 0.68 0.23
21 28 0.3 0.21
21 29 0.46 0.18
21 30 0.63 0.18
21 31 0.64 0.21
21 32 0.64 0.26
21 33 0.56 0.1
21 34 0.67 0.14
21 35 0.62 0.29
21 36 0.44 0.1
21 37 0.66 0.09
21 38 0.6 0.17
21 39 0.44 0.14
22 23 0.84 0.31
22 24 0.7 0.29
22 25 0.43 0.26
22 26 0.68 0.25
22 27 0.68 0.19
22 28 0.83 0.32
22 29 0.62 0.17
22 30 0.31 0.17
22 31 0.44 0.34
22 32 0.82 0.25
22 33 0.47 0.25
22 34 0.62 0.26
22 35 0.54 0.22
22 36 0.75 0.19
22 37 0.54 0.21
22 38 0.5 0.29
22 39 0.89 0.15
23 24 0.52 0.26
23 25 0.6 0.33
23 26 0.5 0.23
23 27 0.63 0.22
23 28 0.8 0.32
23 29 0.56 0.17
23 30 0.82 0.2
23 31 0.4 0.32
23 32 0.46 0.13
23 33 0.67 0.23
23 34 0.3 0.24
23 35 0.48 0.14
23 36 0.68 0.27
23 37 0.66 0.2
23 38 0.42 0.08
23 39 0.48 0.31
24 25 0.42 0.25
24 26 0.74 0.2
24 27 0.5 0.14
24 28 0.52 0.29
24 29 0.42 0.34
24 30 0.42 0.12
24 31 0.66 0.31
24 32 0.38 0.33
24 33 0.52 0.2
24 34 0.7 0.37
24 35 0.62 0.12
24 36 0.52 0.26
24 37 0.82 0.32
24 38 0.72 0.34
24 39 0.64 0.3
25 26 0.63 0.23
25 27 0.48 0.11
25 28 0.4 0.32
25 29 0.68 0.32
25 30 0.58 0.22
25 31 0.37 0.27
25 32 0.63 0.3
25 33 0.53 0.23
25 34 0.68 0.23
25 35 0.35 0.34
25 36 0.5 0.33
25 37 0.79 0.18
25 38 0.46 0.26
25 39 0.64 0.35
26 27 0.68 0.13
26 28 0.66 0.11
26 29 0.38 0.28
26 30 0.56 0.08
26 31 0.28 0.11
26 32 0.82 0.16
26 33 0.38 0.0
26 34 0.77 0.17
26 35 0.78 0.24
26 36 0.53 0.17
26 37 0.49 0.19
26 38 0.64 0.15
26 39 0.46 0.21
27 28 0.74 0.22
27 29 0.3 0.3
27 30 0.37 0.11
27 31 0.66 0.24
27 32 0.68 0.19
27 33 0.73 0.13
27 34 0.52 0.3
27 35 0.59 0.26
27 36 0.7 0.24
27 37 0.63 0.29
27 38 0.32 0.2
27 39 0.57 0.24
28 29 0.71 0.39
28 30 0.73 0.17
28 31 0.56 0.21
28 32 0.56 0.27
28 33 0.45 0.11
28 34 0.64 0.25
28 35 0.72 0.27
28 36 0.6 0.24
28 37 0.8 0.2
28 38 0.52 0.24
28 39 0.44 0.2
29 30 0.67 0.33
29 31 0.46 0.26
29 32 0.7 0.3
29 33 0.6 0.28
29 34 0.74 0.32
29 35 0.78 0.31
29 36 0.54 0.26
29 37 0.57 0.27
29 38 0.62 0.25
29 39 0.27 0.22
30 31 0.74 0.19
30 32 0.52 0.24
30 33 0.36 0.08
30 34 0.57 0.25
30 35 0.51 0.23
30 36 0.74 0.25
30 37 0.54 0.2
30 38 0.66 0.23
30 39 0.76 0.22
31 32 0.79 0.27
31 33 0.64 0.11
31 34 0.49 0.24
31 35 0.71 0.27
31 36 0.66 0.2
31 37 0.44 0.28
31 38 0.61 0.24
31 39 0.73 0.24
32 33 0.6 0.16
32 34 0.59 0.14
32 35 0.66 0.27
32 36 0.48 0.33
32 37 0.6 0.19
32 38 0.48 0.19
32 39 0.66 0.3
33 34 0.43 0.17
33 35 0.74 0.24
33 36 0.42 0.17
33 37 0.66 0.19
33 38 0.45 0.15
33 39 0.65 0.21
34 35 0.63 0.29
34 36 0.58 0.2
34 37 0.68 0.05
34 38 0.72 0.17
34 39 0.56 0.16
35 36 0.68 0.27
35 37 0.64 0.24
35 38 0.71 0.22
35 39 0.75 0.23
36 37 0.61 0.19
36 38 0.5 0.19
36 39 0.42 0.04
37 38 0.76 0.12
37 39 0.61 0.21
38 39 0.65 0.23
